Route #1: 0 46 52 27 29 4 0
Route #2: 0 26 7 8 54 13 45 0
Route #3: 0 14 11 38 0
Route #4: 0 10 31 40 16 51 0
Route #5: 0 2 30 34 19 53 35 0
Route #6: 0 3 44 18 25 9 39 0
Route #7: 0 32 50 24 49 23 33 0
Route #8: 0 1 43 41 42 22 28 0
Route #9: 0 21 47 36 37 20 15 0
Route #10: 0 5 48 6 17 12 0
Cost 818:
